data/CVRPLIB/Vrp-Set-XML100/instances/XML100_2115_19.vrp
NAME : XML100_2115_19
COMMENT : Generated by Queiroga, Sadykov, Uchoa, and Vidal (2021)
TYPE : CVRP
DIMENSION : 101
EDGE_WEIGHT_TYPE : EUC_2D
CAPACITY : 18
NODE_COORD_SECTION
1    500  500 
2    97   153 
3    450  866 
4    390  112 
5    887  255 
6    770  542 
7    908  723 
8    477  257 
9    109  412 
10   645  347 
11   241  719 
12   112  721 
13   264  461 
14   689  478 
15   160  39  
16   517  374 
17   273  786 
18   577  43  
19   623  276 
20   221  90  
21   76   940 
22   290  788 
23   589  462 
24   912  96  
25   579  51  
26   349  88  
27   126  318 
28   174  20  
29   675  974 
30   51   819 
31   926  776 
32   525  966 
33   350  665 
34   665  189 
35   438  407 
36   630  845 
37   507  792 
38   836  271 
39   692  800 
40   152  782 
41   727  781 
42   140  158 
43   70   1000
44   62   319 
45   603  63  
46   478  378 
47   178  335 
48   382  105 
49   429  191 
50   138  739 
51   46   370 
52   759  639 
53   887  220 
54   349  717 
55   981  395 
56   365  841 
57   122  550 
58   953  572 
59   257  991 
60   644  956 
61   930  735 
62   345  293 
63   576  344 
64   789  100 
65   842  122 
66   952  353 
67   94   416 
68   565  854 
69   784  680 
70   372  317 
71   638  127 
72   2    588 
73   739  925 
74   968  870 
75   491  748 
76   169  674 
77   731  824 
78   480  581 
79   522  634 
80   797  633 
81   45   244 
82   340  366 
83   150  835 
84   272  753 
85   741  202 
86   209  425 
87   686  325 
88   534  172 
89   80   424 
90   825  390 
91   497  642 
92   619  198 
93   278  881 
94   347  860 
95   130  733 
96   485  433 
97   298  301 
98   934  205 
99   495  89  
100  585  296 
101  415  197 
DEMAND_SECTION
1    0   
2    1   
3    1   
4    1   
5    1   
6    1   
7    1   
8    1   
9    1   
10   1   
11   1   
12   1   
13   1   
14   1   
15   1   
16   1   
17   1   
18   1   
19   1   
20   1   
21   1   
22   1   
23   1   
24   1   
25   1   
26   1   
27   1   
28   1   
29   1   
30   1   
31   1   
32   1   
33   1   
34   1   
35   1   
36   1   
37   1   
38   1   
39   1   
40   1   
41   1   
42   1   
43   1   
44   1   
45   1   
46   1   
47   1   
48   1   
49   1   
50   1   
51   1   
52   1   
53   1   
54   1   
55   1   
56   1   
57   1   
58   1   
59   1   
60   1   
61   1   
62   1   
63   1   
64   1   
65   1   
66   1   
67   1   
68   1   
69   1   
70   1   
71   1   
72   1   
73   1   
74   1   
75   1   
76   1   
77   1   
78   1   
79   1   
80   1   
81   1   
82   1   
83   1   
84   1   
85   1   
86   1   
87   1   
88   1   
89   1   
90   1   
91   1   
92   1   
93   1   
94   1   
95   1   
96   1   
97   1   
98   1   
99   1   
100  1   
101  1   
DEPOT_SECTION
1
-1
EOF
