data/CVRPLIB/Vrp-Set-XML100/solutions/XML100_2115_19.sol
Route #1: 5 57 6 60 30 73 72 28 59 31 67 35 38 76 40 68 79 51
Route #2: 22 13 89 54 65 37 4 52 97 23 64 63 84 86 9
Route #3: 78 90 74 36 2 55 93 92 58 42 20 29 82 39 16 21 83 53
Route #4: 95 45 7 87 98 17 24 44 70 33 91 18 99 62 15
Route #5: 77 32 10 75 49 94 11 71 56 88 66 8 85 12 81 34
Route #6: 69 61 96 46 26 50 43 80 1 41 14 27 19 25 47 3 48 100
Cost 9779
